system SiGe                             
   1.0000000000000000     
     5.7401999999999997    0.0000000000000000    0.0000000000000000
     0.0000000000000000    5.7401999999999997    0.0000000000000000
     0.0000000000000000    0.0000000000000000   11.0466739910000005
   Si   Ge
     8     8
Direct
  0.0000000000000000  0.0000000000000000  0.0084756680000027
  0.0000000000000000  0.5000000000000000  0.2474394389999972
  0.5000000000000000  0.5000000000000000  0.0084730390000018
  0.5000000000000000  0.0000000000000000  0.2474394389999972
  0.7500017790000015  0.2499982209999985  0.3665262390000024
  0.2500007769999968  0.2500007769999968  0.1275604439999967
  0.2499982209999985  0.7500017790000015  0.3665262390000024
  0.7499992230000032  0.7499992230000032  0.1275604439999967
  0.0000000000000000  0.0000000000000000  0.4915252130000027
  0.0000000000000000  0.5000000000000000  0.7526045800000034
  0.5000000000000000  0.5000000000000000  0.4915248759999997
  0.5000000000000000  0.0000000000000000  0.7526045800000034
  0.7500004190000027  0.2499995809999973  0.8834748519999991
  0.2499998289999965  0.2499998289999965  0.6223950480000013
  0.2499995809999973  0.7500004190000027  0.8834748519999991
  0.7500001710000035  0.7500001710000035  0.6223950480000013

  0.00000000E+00  0.00000000E+00  0.00000000E+00
  0.00000000E+00  0.00000000E+00  0.00000000E+00
  0.00000000E+00  0.00000000E+00  0.00000000E+00
  0.00000000E+00  0.00000000E+00  0.00000000E+00
  0.00000000E+00  0.00000000E+00  0.00000000E+00
  0.00000000E+00  0.00000000E+00  0.00000000E+00
  0.00000000E+00  0.00000000E+00  0.00000000E+00
  0.00000000E+00  0.00000000E+00  0.00000000E+00
  0.00000000E+00  0.00000000E+00  0.00000000E+00
  0.00000000E+00  0.00000000E+00  0.00000000E+00
  0.00000000E+00  0.00000000E+00  0.00000000E+00
  0.00000000E+00  0.00000000E+00  0.00000000E+00
  0.00000000E+00  0.00000000E+00  0.00000000E+00
  0.00000000E+00  0.00000000E+00  0.00000000E+00
  0.00000000E+00  0.00000000E+00  0.00000000E+00
  0.00000000E+00  0.00000000E+00  0.00000000E+00
