Si8 Ge8                                 
   1.00000000000000     
     5.6145979711546365    0.0018295854132157    0.0000152155425107
     0.0018295854132157    5.6145979711546365   -0.0000152155425107
     0.0000317884527976   -0.0000317884527976   11.2328571447136820
   Si   Ge
     8     8
Direct
  0.7458641592742978  0.2541358407257022  0.3787500648906104
  0.0041565071297285  0.9958434928702715  0.9975718303701484
  0.2539780349290837  0.2539145743720539  0.6226680835233296
  0.5005979544164347  0.4994020455835653  0.5008068481904928
  0.4958549494174136  0.5041450505825864  0.9976455936813267
  0.2541136568956475  0.7458863431043525  0.3786455508482049
  0.2493940613539039  0.7506059386460961  0.8762580155891939
  0.7460854256279461  0.7460219650709163  0.6226680835233296
  0.9993924373467564  0.0006075626532436  0.5006599133214280
  0.7506111832135645  0.2493888167864355  0.8762967197519913
  0.4961116142738575  0.9961608046425781  0.7476011417596666
  0.9993077500052436  0.4993103119792437  0.2541217300939138
  0.2493124252145904  0.2493090424766464  0.1222927763013857
  0.5006896880207563  0.0006922499947564  0.2541217300939138
  0.0038391953574219  0.5038883857261425  0.7476011417596666
  0.7506909575233536  0.7506875747854096  0.1222927763013857
