system SiGe                             
   1.0000000000000000     
     5.4756999999999998    0.0000000000000000    0.0000000000000000
     0.0000000000000000    5.4756999999999998    0.0000000000000000
     0.0000000000000000    0.0000000000000000   11.4214509999999994
   Si   Ge
     8     8
Direct
  0.0000000000000000  0.0000000000000000  0.0081907650000019
  0.0000000000000000  0.5000000000000000  0.2475314149999974
  0.5000000000000000  0.5000000000000000  0.0081883149999982
  0.5000000000000000  0.0000000000000000  0.2475314149999974
  0.7500017569999997  0.2499982430000003  0.3668108330000024
  0.2500009500000004  0.2500009500000004  0.1274686579999980
  0.2499982430000003  0.7500017569999997  0.3668108330000024
  0.7499990499999996  0.7499990499999996  0.1274686579999980
  0.0000000000000000  0.0000000000000000  0.4916956650000017
  0.0000000000000000  0.5000000000000000  0.7525479930000003
  0.5000000000000000  0.5000000000000000  0.4916950670000020
  0.5000000000000000  0.0000000000000000  0.7525479930000003
  0.7500006109999973  0.2499993890000027  0.8833044260000023
  0.2499998959999985  0.2499998959999985  0.6224517690000013
  0.2499993890000027  0.7500006109999973  0.8833044260000023
  0.7500001040000015  0.7500001040000015  0.6224517690000013

  0.00000000E+00  0.00000000E+00  0.00000000E+00
  0.00000000E+00  0.00000000E+00  0.00000000E+00
  0.00000000E+00  0.00000000E+00  0.00000000E+00
  0.00000000E+00  0.00000000E+00  0.00000000E+00
  0.00000000E+00  0.00000000E+00  0.00000000E+00
  0.00000000E+00  0.00000000E+00  0.00000000E+00
  0.00000000E+00  0.00000000E+00  0.00000000E+00
  0.00000000E+00  0.00000000E+00  0.00000000E+00
  0.00000000E+00  0.00000000E+00  0.00000000E+00
  0.00000000E+00  0.00000000E+00  0.00000000E+00
  0.00000000E+00  0.00000000E+00  0.00000000E+00
  0.00000000E+00  0.00000000E+00  0.00000000E+00
  0.00000000E+00  0.00000000E+00  0.00000000E+00
  0.00000000E+00  0.00000000E+00  0.00000000E+00
  0.00000000E+00  0.00000000E+00  0.00000000E+00
  0.00000000E+00  0.00000000E+00  0.00000000E+00
